p cnf 1467
-23 -457
-24 -460
-25 -463
-26 -466
-27 -469
-28 -472
-29 -475
-30 -478
-31 -481
-32 -484
-33 -487
-34 -490
-35 -493
-36 -496
-37 -499
-38 -502
-39 -505
-40 -508
-41 -511
-42 -514
-43 -517
-44 -520
-45 521
-46 522
-47 523
-48 524
-49 525
-50 526
-51 527
-52 528
-53 529
-54 530
-55 -24
-55 -25
24 25 55
-56 -26
-56 -27
26 27 56
-57 -28
-57 -29
28 29 57
-58 -30
-58 -31
30 31 58
-59 -32
-59 -33
32 33 59
-60 -34
-60 -35
34 35 60
-61 -36
-61 -37
36 37 61
-62 -38
-62 -39
38 39 62
-63 -40
-63 -41
40 41 63
-64 -42
-64 -43
42 43 64
-65 -44
-65 -45
44 45 65
-66 -46
-66 -47
46 47 66
-67 -48
-67 -49
48 49 67
-68 -50
-68 -51
50 51 68
-69 -52
-69 -53
52 53 69
-70 55
-70 56
-55 -56 70
-71 57
-71 58
-57 -58 71
-72 59
-72 60
-59 -60 72
-73 61
-73 62
-61 -62 73
-74 63
-74 64
-63 -64 74
-75 65
-75 66
-65 -66 75
-76 67
-76 68
-67 -68 76
-77 -54
-77 69
54 -69 77
-78 70
-78 71
-70 -71 78
-79 72
-79 73
-72 -73 79
-80 74
-80 75
-74 -75 80
-81 76
-81 77
-76 -77 81
-82 78
-82 79
-78 -79 82
-83 80
-83 81
-80 -81 83
-84 82
-84 83
-82 -83 84
-85 -23
-85 24
23 -24 85
-86 23
-86 -24
-23 24 86
-87 -85
-87 -86
85 86 87
-88 23
-88 24
-23 -24 88
-89 -23
-89 -87
23 87 89
-90 23
-90 87
-23 -87 90
-91 -89
-91 -90
89 90 91
-92 23
-92 -87
-23 87 92
-93 -88
-93 -92
88 92 93
-94 -24
-94 25
24 -25 94
-95 24
-95 -25
-24 25 95
-96 -94
-96 -95
94 95 96
-97 24
-97 25
-24 -25 97
-98 93
-98 -96
-93 96 98
-99 -93
-99 96
93 -96 99
-100 -98
-100 -99
98 99 100
-101 -93
-101 -96
93 96 101
-102 -97
-102 -101
97 101 102
-103 -25
-103 26
25 -26 103
-104 25
-104 -26
-25 26 104
-105 -103
-105 -104
103 104 105
-106 25
-106 26
-25 -26 106
-107 102
-107 -105
-102 105 107
-108 -102
-108 105
102 -105 108
-109 -107
-109 -108
107 108 109
-110 -102
-110 -105
102 105 110
-111 -106
-111 -110
106 110 111
-112 -26
-112 27
26 -27 112
-113 26
-113 -27
-26 27 113
-114 -112
-114 -113
112 113 114
-115 26
-115 27
-26 -27 115
-116 111
-116 -114
-111 114 116
-117 -111
-117 114
111 -114 117
-118 -116
-118 -117
116 117 118
-119 -111
-119 -114
111 114 119
-120 -115
-120 -119
115 119 120
-121 -27
-121 28
27 -28 121
-122 27
-122 -28
-27 28 122
-123 -121
-123 -122
121 122 123
-124 27
-124 28
-27 -28 124
-125 120
-125 -123
-120 123 125
-126 -120
-126 123
120 -123 126
-127 -125
-127 -126
125 126 127
-128 -120
-128 -123
120 123 128
-129 -124
-129 -128
124 128 129
-130 -28
-130 29
28 -29 130
-131 28
-131 -29
-28 29 131
-132 -130
-132 -131
130 131 132
-133 28
-133 29
-28 -29 133
-134 129
-134 -132
-129 132 134
-135 -129
-135 132
129 -132 135
-136 -134
-136 -135
134 135 136
-137 -129
-137 -132
129 132 137
-138 -133
-138 -137
133 137 138
-139 -29
-139 30
29 -30 139
-140 29
-140 -30
-29 30 140
-141 -139
-141 -140
139 140 141
-142 29
-142 30
-29 -30 142
-143 138
-143 -141
-138 141 143
-144 -138
-144 141
138 -141 144
-145 -143
-145 -144
143 144 145
-146 -138
-146 -141
138 141 146
-147 -142
-147 -146
142 146 147
-148 -30
-148 31
30 -31 148
-149 30
-149 -31
-30 31 149
-150 -148
-150 -149
148 149 150
-151 30
-151 31
-30 -31 151
-152 147
-152 -150
-147 150 152
-153 -147
-153 150
147 -150 153
-154 -152
-154 -153
152 153 154
-155 -147
-155 -150
147 150 155
-156 -151
-156 -155
151 155 156
-157 -31
-157 32
31 -32 157
-158 31
-158 -32
-31 32 158
-159 -157
-159 -158
157 158 159
-160 31
-160 32
-31 -32 160
-161 156
-161 -159
-156 159 161
-162 -156
-162 159
156 -159 162
-163 -161
-163 -162
161 162 163
-164 -156
-164 -159
156 159 164
-165 -160
-165 -164
160 164 165
-166 -32
-166 33
32 -33 166
-167 32
-167 -33
-32 33 167
-168 -166
-168 -167
166 167 168
-169 32
-169 33
-32 -33 169
-170 165
-170 -168
-165 168 170
-171 -165
-171 168
165 -168 171
-172 -170
-172 -171
170 171 172
-173 -165
-173 -168
165 168 173
-174 -169
-174 -173
169 173 174
-175 -33
-175 34
33 -34 175
-176 33
-176 -34
-33 34 176
-177 -175
-177 -176
175 176 177
-178 33
-178 34
-33 -34 178
-179 174
-179 -177
-174 177 179
-180 -174
-180 177
174 -177 180
-181 -179
-181 -180
179 180 181
-182 -174
-182 -177
174 177 182
-183 -178
-183 -182
178 182 183
-184 -34
-184 35
34 -35 184
-185 34
-185 -35
-34 35 185
-186 -184
-186 -185
184 185 186
-187 34
-187 35
-34 -35 187
-188 183
-188 -186
-183 186 188
-189 -183
-189 186
183 -186 189
-190 -188
-190 -189
188 189 190
-191 -183
-191 -186
183 186 191
-192 -187
-192 -191
187 191 192
-193 -35
-193 36
35 -36 193
-194 35
-194 -36
-35 36 194
-195 -193
-195 -194
193 194 195
-196 35
-196 36
-35 -36 196
-197 192
-197 -195
-192 195 197
-198 -192
-198 195
192 -195 198
-199 -197
-199 -198
197 198 199
-200 -192
-200 -195
192 195 200
-201 -196
-201 -200
196 200 201
-202 -36
-202 37
36 -37 202
-203 36
-203 -37
-36 37 203
-204 -202
-204 -203
202 203 204
-205 36
-205 37
-36 -37 205
-206 201
-206 -204
-201 204 206
-207 -201
-207 204
201 -204 207
-208 -206
-208 -207
206 207 208
-209 -201
-209 -204
201 204 209
-210 -205
-210 -209
205 209 210
-211 -37
-211 38
37 -38 211
-212 37
-212 -38
-37 38 212
-213 -211
-213 -212
211 212 213
-214 37
-214 38
-37 -38 214
-215 210
-215 -213
-210 213 215
-216 -210
-216 213
210 -213 216
-217 -215
-217 -216
215 216 217
-218 -210
-218 -213
210 213 218
-219 -214
-219 -218
214 218 219
-220 -38
-220 39
38 -39 220
-221 38
-221 -39
-38 39 221
-222 -220
-222 -221
220 221 222
-223 38
-223 39
-38 -39 223
-224 219
-224 -222
-219 222 224
-225 -219
-225 222
219 -222 225
-226 -224
-226 -225
224 225 226
-227 -219
-227 -222
219 222 227
-228 -223
-228 -227
223 227 228
-229 -39
-229 40
39 -40 229
-230 39
-230 -40
-39 40 230
-231 -229
-231 -230
229 230 231
-232 39
-232 40
-39 -40 232
-233 228
-233 -231
-228 231 233
-234 -228
-234 231
228 -231 234
-235 -233
-235 -234
233 234 235
-236 -228
-236 -231
228 231 236
-237 -232
-237 -236
232 236 237
-238 -40
-238 41
40 -41 238
-239 40
-239 -41
-40 41 239
-240 -238
-240 -239
238 239 240
-241 40
-241 41
-40 -41 241
-242 237
-242 -240
-237 240 242
-243 -237
-243 240
237 -240 243
-244 -242
-244 -243
242 243 244
-245 -237
-245 -240
237 240 245
-246 -241
-246 -245
241 245 246
-247 -41
-247 42
41 -42 247
-248 41
-248 -42
-41 42 248
-249 -247
-249 -248
247 248 249
-250 41
-250 42
-41 -42 250
-251 246
-251 -249
-246 249 251
-252 -246
-252 249
246 -249 252
-253 -251
-253 -252
251 252 253
-254 -246
-254 -249
246 249 254
-255 -250
-255 -254
250 254 255
-256 -42
-256 43
42 -43 256
-257 42
-257 -43
-42 43 257
-258 -256
-258 -257
256 257 258
-259 42
-259 43
-42 -43 259
-260 255
-260 -258
-255 258 260
-261 -255
-261 258
255 -258 261
-262 -260
-262 -261
260 261 262
-263 -255
-263 -258
255 258 263
-264 -259
-264 -263
259 263 264
-265 -43
-265 44
43 -44 265
-266 43
-266 -44
-43 44 266
-267 -265
-267 -266
265 266 267
-268 43
-268 44
-43 -44 268
-269 264
-269 -267
-264 267 269
-270 -264
-270 267
264 -267 270
-271 -269
-271 -270
269 270 271
-272 -264
-272 -267
264 267 272
-273 -268
-273 -272
268 272 273
-274 -44
-274 45
44 -45 274
-275 44
-275 -45
-44 45 275
-276 -274
-276 -275
274 275 276
-277 44
-277 45
-44 -45 277
-278 273
-278 -276
-273 276 278
-279 -273
-279 276
273 -276 279
-280 -278
-280 -279
278 279 280
-281 -273
-281 -276
273 276 281
-282 -277
-282 -281
277 281 282
-283 -45
-283 46
45 -46 283
-284 45
-284 -46
-45 46 284
-285 -283
-285 -284
283 284 285
-286 45
-286 46
-45 -46 286
-287 282
-287 -285
-282 285 287
-288 -282
-288 285
282 -285 288
-289 -287
-289 -288
287 288 289
-290 -282
-290 -285
282 285 290
-291 -286
-291 -290
286 290 291
-292 -46
-292 47
46 -47 292
-293 46
-293 -47
-46 47 293
-294 -292
-294 -293
292 293 294
-295 46
-295 47
-46 -47 295
-296 291
-296 -294
-291 294 296
-297 -291
-297 294
291 -294 297
-298 -296
-298 -297
296 297 298
-299 -291
-299 -294
291 294 299
-300 -295
-300 -299
295 299 300
-301 -47
-301 48
47 -48 301
-302 47
-302 -48
-47 48 302
-303 -301
-303 -302
301 302 303
-304 47
-304 48
-47 -48 304
-305 300
-305 -303
-300 303 305
-306 -300
-306 303
300 -303 306
-307 -305
-307 -306
305 306 307
-308 -300
-308 -303
300 303 308
-309 -304
-309 -308
304 308 309
-310 -48
-310 49
48 -49 310
-311 48
-311 -49
-48 49 311
-312 -310
-312 -311
310 311 312
-313 48
-313 49
-48 -49 313
-314 309
-314 -312
-309 312 314
-315 -309
-315 312
309 -312 315
-316 -314
-316 -315
314 315 316
-317 -309
-317 -312
309 312 317
-318 -313
-318 -317
313 317 318
-319 -49
-319 50
49 -50 319
-320 49
-320 -50
-49 50 320
-321 -319
-321 -320
319 320 321
-322 49
-322 50
-49 -50 322
-323 318
-323 -321
-318 321 323
-324 -318
-324 321
318 -321 324
-325 -323
-325 -324
323 324 325
-326 -318
-326 -321
318 321 326
-327 -322
-327 -326
322 326 327
-328 -50
-328 51
50 -51 328
-329 50
-329 -51
-50 51 329
-330 -328
-330 -329
328 329 330
-331 50
-331 51
-50 -51 331
-332 327
-332 -330
-327 330 332
-333 -327
-333 330
327 -330 333
-334 -332
-334 -333
332 333 334
-335 -327
-335 -330
327 330 335
-336 -331
-336 -335
331 335 336
-337 -51
-337 52
51 -52 337
-338 51
-338 -52
-51 52 338
-339 -337
-339 -338
337 338 339
-340 51
-340 52
-51 -52 340
-341 336
-341 -339
-336 339 341
-342 -336
-342 339
336 -339 342
-343 -341
-343 -342
341 342 343
-344 -336
-344 -339
336 339 344
-345 -340
-345 -344
340 344 345
-346 -52
-346 53
52 -53 346
-347 52
-347 -53
-52 53 347
-348 -346
-348 -347
346 347 348
-349 52
-349 53
-52 -53 349
-350 345
-350 -348
-345 348 350
-351 -345
-351 348
345 -348 351
-352 -350
-352 -351
350 351 352
-353 -345
-353 -348
345 348 353
-354 -349
-354 -353
349 353 354
-355 -53
-355 54
53 -54 355
-356 53
-356 -54
-53 54 356
-357 -355
-357 -356
355 356 357
-358 53
-358 54
-53 -54 358
-359 354
-359 -357
-354 357 359
-360 -354
-360 357
354 -357 360
-361 -359
-361 -360
359 360 361
-362 -354
-362 -357
354 357 362
-363 -358
-363 -362
358 362 363
-364 23
-364 -91
-23 91 364
-365 -23
-365 25
23 -25 365
-366 -364
-366 -365
364 365 366
-367 23
-367 -100
-23 100 367
-368 -23
-368 26
23 -26 368
-369 -367
-369 -368
367 368 369
-370 23
-370 -109
-23 109 370
-371 -23
-371 27
23 -27 371
-372 -370
-372 -371
370 371 372
-373 23
-373 -118
-23 118 373
-374 -23
-374 28
23 -28 374
-375 -373
-375 -374
373 374 375
-376 23
-376 -127
-23 127 376
-377 -23
-377 29
23 -29 377
-378 -376
-378 -377
376 377 378
-379 23
-379 -136
-23 136 379
-380 -23
-380 30
23 -30 380
-381 -379
-381 -380
379 380 381
-382 23
-382 -145
-23 145 382
-383 -23
-383 31
23 -31 383
-384 -382
-384 -383
382 383 384
-385 23
-385 -154
-23 154 385
-386 -23
-386 32
23 -32 386
-387 -385
-387 -386
385 386 387
-388 23
-388 -163
-23 163 388
-389 -23
-389 33
23 -33 389
-390 -388
-390 -389
388 389 390
-391 23
-391 -172
-23 172 391
-392 -23
-392 34
23 -34 392
-393 -391
-393 -392
391 392 393
-394 23
-394 -181
-23 181 394
-395 -23
-395 35
23 -35 395
-396 -394
-396 -395
394 395 396
-397 23
-397 -190
-23 190 397
-398 -23
-398 36
23 -36 398
-399 -397
-399 -398
397 398 399
-400 23
-400 -199
-23 199 400
-401 -23
-401 37
23 -37 401
-402 -400
-402 -401
400 401 402
-403 23
-403 -208
-23 208 403
-404 -23
-404 38
23 -38 404
-405 -403
-405 -404
403 404 405
-406 23
-406 -217
-23 217 406
-407 -23
-407 39
23 -39 407
-408 -406
-408 -407
406 407 408
-409 23
-409 -226
-23 226 409
-410 -23
-410 40
23 -40 410
-411 -409
-411 -410
409 410 411
-412 23
-412 -235
-23 235 412
-413 -23
-413 41
23 -41 413
-414 -412
-414 -413
412 413 414
-415 23
-415 -244
-23 244 415
-416 -23
-416 42
23 -42 416
-417 -415
-417 -416
415 416 417
-418 23
-418 -253
-23 253 418
-419 -23
-419 43
23 -43 419
-420 -418
-420 -419
418 419 420
-421 23
-421 -262
-23 262 421
-422 -23
-422 44
23 -44 422
-423 -421
-423 -422
421 422 423
-424 23
-424 -271
-23 271 424
-425 -23
-425 45
23 -45 425
-426 -424
-426 -425
424 425 426
-427 23
-427 -280
-23 280 427
-428 -23
-428 46
23 -46 428
-429 -427
-429 -428
427 428 429
-430 23
-430 -289
-23 289 430
-431 -23
-431 47
23 -47 431
-432 -430
-432 -431
430 431 432
-433 23
-433 -298
-23 298 433
-434 -23
-434 48
23 -48 434
-435 -433
-435 -434
433 434 435
-436 23
-436 -307
-23 307 436
-437 -23
-437 49
23 -49 437
-438 -436
-438 -437
436 437 438
-439 23
-439 -316
-23 316 439
-440 -23
-440 50
23 -50 440
-441 -439
-441 -440
439 440 441
-442 23
-442 -325
-23 325 442
-443 -23
-443 51
23 -51 443
-444 -442
-444 -443
442 443 444
-445 23
-445 -334
-23 334 445
-446 -23
-446 52
23 -52 446
-447 -445
-447 -446
445 446 447
-448 23
-448 -343
-23 343 448
-449 -23
-449 53
23 -53 449
-450 -448
-450 -449
448 449 450
-451 23
-451 -352
-23 352 451
-452 -23
-452 54
23 -54 452
-453 -451
-453 -452
451 452 453
-454 23
-454 -361
-23 361 454
-455 1
-455 84
-1 -84 455
-456 -84
-456 85
84 -85 456
-457 -455
-457 -456
455 456 457
-458 2
-458 84
-2 -84 458
-459 -84
-459 -366
84 366 459
-460 -458
-460 -459
458 459 460
-461 3
-461 84
-3 -84 461
-462 -84
-462 -369
84 369 462
-463 -461
-463 -462
461 462 463
-464 4
-464 84
-4 -84 464
-465 -84
-465 -372
84 372 465
-466 -464
-466 -465
464 465 466
-467 5
-467 84
-5 -84 467
-468 -84
-468 -375
84 375 468
-469 -467
-469 -468
467 468 469
-470 6
-470 84
-6 -84 470
-471 -84
-471 -378
84 378 471
-472 -470
-472 -471
470 471 472
-473 7
-473 84
-7 -84 473
-474 -84
-474 -381
84 381 474
-475 -473
-475 -474
473 474 475
-476 8
-476 84
-8 -84 476
-477 -84
-477 -384
84 384 477
-478 -476
-478 -477
476 477 478
-479 9
-479 84
-9 -84 479
-480 -84
-480 -387
84 387 480
-481 -479
-481 -480
479 480 481
-482 10
-482 84
-10 -84 482
-483 -84
-483 -390
84 390 483
-484 -482
-484 -483
482 483 484
-485 11
-485 84
-11 -84 485
-486 -84
-486 -393
84 393 486
-487 -485
-487 -486
485 486 487
-488 12
-488 84
-12 -84 488
-489 -84
-489 -396
84 396 489
-490 -488
-490 -489
488 489 490
-491 13
-491 84
-13 -84 491
-492 -84
-492 -399
84 399 492
-493 -491
-493 -492
491 492 493
-494 14
-494 84
-14 -84 494
-495 -84
-495 -402
84 402 495
-496 -494
-496 -495
494 495 496
-497 15
-497 84
-15 -84 497
-498 -84
-498 -405
84 405 498
-499 -497
-499 -498
497 498 499
-500 16
-500 84
-16 -84 500
-501 -84
-501 -408
84 408 501
-502 -500
-502 -501
500 501 502
-503 17
-503 84
-17 -84 503
-504 -84
-504 -411
84 411 504
-505 -503
-505 -504
503 504 505
-506 18
-506 84
-18 -84 506
-507 -84
-507 -414
84 414 507
-508 -506
-508 -507
506 507 508
-509 19
-509 84
-19 -84 509
-510 -84
-510 -417
84 417 510
-511 -509
-511 -510
509 510 511
-512 20
-512 84
-20 -84 512
-513 -84
-513 -420
84 420 513
-514 -512
-514 -513
512 513 514
-515 21
-515 84
-21 -84 515
-516 -84
-516 -423
84 423 516
-517 -515
-517 -516
515 516 517
-518 22
-518 84
-22 -84 518
-519 -84
-519 -426
84 426 519
-520 -518
-520 -519
518 519 520
-521 -84
-521 -429
84 429 521
-522 -84
-522 -432
84 432 522
-523 -84
-523 -435
84 435 523
-524 -84
-524 -438
84 438 524
-525 -84
-525 -441
84 441 525
-526 -84
-526 -444
84 444 526
-527 -84
-527 -447
84 447 527
-528 -84
-528 -450
84 450 528
-529 -84
-529 -453
84 453 529
-530 -84
-530 454
84 -454 530
-531 -54
-531 363
54 -363 531
-532 23
-532 -531
-23 531 532
532
